\ENCODING=ISO-8859-1
\Problem name: GMKP - Callable Library

Maximize
 obj: 12 x_1_1 + 35 x_1_2 + 34 x_1_3 + 18 x_1_4 + 32 x_1_5 + 52 x_1_6
      + 70 x_1_7 + 61 x_1_8 + 90 x_1_9 + 66 x_1_10 + 49 x_1_11 + 90 x_1_12
      + 94 x_1_13 + 24 x_1_14 + 13 x_1_15 + 50 x_1_16 + 97 x_1_17 + 87 x_1_18
      + 20 x_1_19 + 46 x_1_20 + 47 x_1_21 + 75 x_1_22 + 12 x_1_23 + 91 x_1_24
      + 42 x_1_25 + 89 x_2_1 + 81 x_2_2 + 62 x_2_3 + 76 x_2_4 + 67 x_2_5
      + 92 x_2_6 + 13 x_2_7 + 66 x_2_8 + 26 x_2_9 + 16 x_2_10 + 29 x_2_11
      + 82 x_2_12 + 85 x_2_13 + 82 x_2_14 + 23 x_2_15 + 43 x_2_16 + 10 x_2_17
      + 84 x_2_18 + 51 x_2_19 + 38 x_2_20 + 10 x_2_21 + 52 x_2_22 + 55 x_2_23
      + 28 x_2_24 + 20 x_2_25
Subject To
 capacity_1:            42 x_1_1 + 22 x_1_2 + 49 x_1_3 + 16 x_1_4 + 93 x_1_5
                        + 67 x_1_6 + 12 x_1_7 + 33 x_1_8 + 56 x_1_9 + 17 x_1_10
                        + 67 x_1_11 + 82 x_1_12 + 29 x_1_13 + 11 x_1_14
                        + 31 x_1_15 + 55 x_1_16 + 52 x_1_17 + 52 x_1_18
                        + 13 x_1_19 + 87 x_1_20 + 37 x_1_21 + 15 x_1_22
                        + 11 x_1_23 + 29 x_1_24 + 36 x_1_25 + 82 y_1_1
                        + 79 y_1_2 + 66 y_1_3 + 59 y_1_4 + 89 y_1_5 <= 507
 capacity_2:            42 x_2_1 + 22 x_2_2 + 49 x_2_3 + 16 x_2_4 + 93 x_2_5
                        + 67 x_2_6 + 12 x_2_7 + 33 x_2_8 + 56 x_2_9 + 17 x_2_10
                        + 67 x_2_11 + 82 x_2_12 + 29 x_2_13 + 11 x_2_14
                        + 31 x_2_15 + 55 x_2_16 + 52 x_2_17 + 52 x_2_18
                        + 13 x_2_19 + 87 x_2_20 + 37 x_2_21 + 15 x_2_22
                        + 11 x_2_23 + 29 x_2_24 + 36 x_2_25 + 82 y_2_1
                        + 79 y_2_2 + 66 y_2_3 + 59 y_2_4 + 89 y_2_5 <= 392
 max_one_bin_x_1:       x_1_1 + x_2_1 <= 1
 max_one_bin_x_2:       x_1_2 + x_2_2 <= 1
 max_one_bin_x_3:       x_1_3 + x_2_3 <= 1
 max_one_bin_x_4:       x_1_4 + x_2_4 <= 1
 max_one_bin_x_5:       x_1_5 + x_2_5 <= 1
 max_one_bin_x_6:       x_1_6 + x_2_6 <= 1
 max_one_bin_x_7:       x_1_7 + x_2_7 <= 1
 max_one_bin_x_8:       x_1_8 + x_2_8 <= 1
 max_one_bin_x_9:       x_1_9 + x_2_9 <= 1
 max_one_bin_x_10:      x_1_10 + x_2_10 <= 1
 max_one_bin_x_11:      x_1_11 + x_2_11 <= 1
 max_one_bin_x_12:      x_1_12 + x_2_12 <= 1
 max_one_bin_x_13:      x_1_13 + x_2_13 <= 1
 max_one_bin_x_14:      x_1_14 + x_2_14 <= 1
 max_one_bin_x_15:      x_1_15 + x_2_15 <= 1
 max_one_bin_x_16:      x_1_16 + x_2_16 <= 1
 max_one_bin_x_17:      x_1_17 + x_2_17 <= 1
 max_one_bin_x_18:      x_1_18 + x_2_18 <= 1
 max_one_bin_x_19:      x_1_19 + x_2_19 <= 1
 max_one_bin_x_20:      x_1_20 + x_2_20 <= 1
 max_one_bin_x_21:      x_1_21 + x_2_21 <= 1
 max_one_bin_x_22:      x_1_22 + x_2_22 <= 1
 max_one_bin_x_23:      x_1_23 + x_2_23 <= 1
 max_one_bin_x_24:      x_1_24 + x_2_24 <= 1
 max_one_bin_x_25:      x_1_25 + x_2_25 <= 1
 max_b_bin_y_1:         y_1_1 + y_2_1 <= 1
 max_b_bin_y_2:         y_1_2 + y_2_2 <= 1
 max_b_bin_y_3:         y_1_3 + y_2_3 <= 1
 max_b_bin_y_4:         y_1_4 + y_2_4 <= 1
 max_b_bin_y_5:         y_1_5 + y_2_5 <= 2
 dependent_decision_1:  x_1_1 + x_1_11 + x_1_17 + x_1_19 + x_1_21 + x_1_22
                        - 25 y_1_1 <= 0
 dependent_decision_2:  x_1_2 + x_1_6 + x_1_10 + x_1_15 + x_1_18 + x_1_25
                        - 25 y_1_2 <= 0
 dependent_decision_3:  x_1_3 + x_1_7 + x_1_20 - 25 y_1_3 <= 0
 dependent_decision_4:  x_1_4 + x_1_9 + x_1_13 + x_1_14 + x_1_23 + x_1_24
                        - 25 y_1_4 <= 0
 dependent_decision_5:  x_1_5 + x_1_8 + x_1_12 + x_1_16 - 25 y_1_5 <= 0
 dependent_decision_6:  x_2_1 + x_2_11 + x_2_17 + x_2_19 + x_2_21 + x_2_22
                        - 25 y_2_1 <= 0
 dependent_decision_7:  x_2_2 + x_2_6 + x_2_10 + x_2_15 + x_2_18 + x_2_25
                        - 25 y_2_2 <= 0
 dependent_decision_8:  x_2_3 + x_2_7 + x_2_20 - 25 y_2_3 <= 0
 dependent_decision_9:  x_2_4 + x_2_9 + x_2_13 + x_2_14 + x_2_23 + x_2_24
                        - 25 y_2_4 <= 0
 dependent_decision_10: x_2_5 + x_2_8 + x_2_12 + x_2_16 - 25 y_2_5 <= 0
Bounds
 0 <= x_1_1 <= 1
 0 <= x_1_2 <= 1
 0 <= x_1_3 <= 1
 0 <= x_1_4 <= 1
 0 <= x_1_5 <= 1
 0 <= x_1_6 <= 1
 0 <= x_1_7 <= 1
 0 <= x_1_8 <= 1
 0 <= x_1_9 <= 1
 0 <= x_1_10 <= 1
 0 <= x_1_11 <= 1
 0 <= x_1_12 <= 1
 0 <= x_1_13 <= 1
 0 <= x_1_14 <= 1
 0 <= x_1_15 <= 1
 0 <= x_1_16 <= 1
 0 <= x_1_17 <= 1
 0 <= x_1_18 <= 1
 0 <= x_1_19 <= 1
 0 <= x_1_20 <= 1
 0 <= x_1_21 <= 1
 0 <= x_1_22 <= 1
 0 <= x_1_23 <= 1
 0 <= x_1_24 <= 1
 0 <= x_1_25 <= 1
 0 <= x_2_1 <= 1
 0 <= x_2_2 <= 1
 0 <= x_2_3 <= 1
 0 <= x_2_4 <= 1
 0 <= x_2_5 <= 1
 0 <= x_2_6 <= 1
 0 <= x_2_7 <= 1
 0 <= x_2_8 <= 1
 0 <= x_2_9 <= 1
 0 <= x_2_10 <= 1
 0 <= x_2_11 <= 1
 0 <= x_2_12 <= 1
 0 <= x_2_13 <= 1
 0 <= x_2_14 <= 1
 0 <= x_2_15 <= 1
 0 <= x_2_16 <= 1
 0 <= x_2_17 <= 1
 0 <= x_2_18 <= 1
 0 <= x_2_19 <= 1
 0 <= x_2_20 <= 1
 0 <= x_2_21 <= 1
 0 <= x_2_22 <= 1
 0 <= x_2_23 <= 1
 0 <= x_2_24 <= 1
 0 <= x_2_25 <= 1
 0 <= y_1_1 <= 1
 0 <= y_1_2 <= 1
 0 <= y_1_3 <= 1
 0 <= y_1_4 <= 1
 0 <= y_1_5 <= 1
 0 <= y_2_1 <= 1
 0 <= y_2_2 <= 1
 0 <= y_2_3 <= 1
 0 <= y_2_4 <= 1
 0 <= y_2_5 <= 1
Binaries
 x_1_1  x_1_2  x_1_3  x_1_4  x_1_5  x_1_6  x_1_7  x_1_8  x_1_9  x_1_10  x_1_11 
 x_1_12  x_1_13  x_1_14  x_1_15  x_1_16  x_1_17  x_1_18  x_1_19  x_1_20 
 x_1_21  x_1_22  x_1_23  x_1_24  x_1_25  x_2_1  x_2_2  x_2_3  x_2_4  x_2_5 
 x_2_6  x_2_7  x_2_8  x_2_9  x_2_10  x_2_11  x_2_12  x_2_13  x_2_14  x_2_15 
 x_2_16  x_2_17  x_2_18  x_2_19  x_2_20  x_2_21  x_2_22  x_2_23  x_2_24 
 x_2_25  y_1_1  y_1_2  y_1_3  y_1_4  y_1_5  y_2_1  y_2_2  y_2_3  y_2_4  y_2_5 
End
